n_res = 5;
rcap = [9, 7, 11, 87, 80];
rtype = [1, 1, 1, 2, 2];
n_tasks = 16;
modes = [ {1, 2, 3}, {4, 5, 6}, {7, 8, 9}, {10, 11, 12}, {13, 14, 15}, {16, 17, 18}, {19, 20, 21}, {22, 23, 24}, {25, 26, 27}, {28, 29, 30}, {31, 32, 33}, {34, 35, 36}, {37, 38, 39}, {40, 41, 42}, {43, 44, 45}, {46, 47, 48} ];
succ = [ {6, 12, 16}, {5, 7, 12}, {4, 9, 14}, {12, 13}, {8, 9, 10}, {7, 8, 11}, {14}, {14}, {11, 16}, {11, 13}, {15}, {15}, {15, 16}, {}, {}, {} ];
n_opt = 48;
dur = [5, 7, 8, 4, 6, 9, 6, 6, 8, 3, 4, 10, 4, 5, 8, 3, 8, 9, 4, 5, 10, 2, 7, 10, 1, 2, 3, 7, 9, 10, 2, 4, 6, 3, 6, 7, 1, 2, 7, 1, 1, 4, 2, 4, 8, 1, 1, 7];
rreq = [|  0,  3,  0,  0,  7,  0,  4,  0,  0,  0,  9,  2,  0,  4,  1,  4,  4,  4,  0,  0,  5,  0,  0,  0,  4,  3,  3,  1,  0,  0,  8,  0,  7,  0,  7,  2,  5,  0,  0, 10,  0,  9,  0,  7,  3,  7,  0,  8
        |  0,  2,  0,  5,  0,  0,  0,  4,  3,  2,  0,  0,  0,  5,  4,  0,  0,  0,  6,  4,  0,  0,  6,  4,  9,  0,  0,  0,  0,  0,  3,  2,  2,  8,  2,  0,  0,  7,  0,  9,  0,  0,  0,  0,  0,  5,  0,  0
        |  7,  0,  6,  0,  0,  7, 10,  0, 10,  0,  0,  0,  4,  4,  0,  9,  0,  9,  8,  0,  0,  6,  0,  0,  4,  4,  4,  0,  7,  5,  4,  4,  2,  4,  0,  0,  9,  0,  8,  0,  5,  0,  9,  7,  6,  0,  2,  0
        |  0,  5,  5, 10,  0,  0,  5,  4,  2,  7,  0,  0,  0,  9,  8,  6,  0,  0,  5,  0,  0,  0,  0,  5,  4,  3,  0,  7,  7,  6,  0,  0,  8,  0,  3,  0,  0,  0,  0,  0,  4,  4,  8,  7,  3,  0,  1,  0
        |  4,  0,  0,  0,  8,  6,  0,  0,  0,  0,  4,  3,  4,  0,  0,  0,  7,  2,  0,  6,  3,  8,  7,  0,  0,  0, 10,  0,  0,  0,  2,  2,  0,  4,  0,  2, 10,  9,  9,  6,  0,  0,  0,  0,  0,  7,  0,  5 |];
